Route #1: 16 30 1 5 14
Route #2: 43 22 8 28 37 19 27
Route #3: 13 25 42 11 10 36 2 17 24
Route #4: 29 6 18 15 3 9 23
Route #5: 34 21 31 41 35 4
Route #6: 26 20 7 38 40 33 44 32 12 39
cost 835.1520385742188